17	4
13	14	12	13	
0	0	0	0	0	3	2	3	4	
5	4	7	3	8	3	16	17	17	
4	2	10	9	0	3	5	17	17	
8	9	2	4	7	3	6	8	10	
1	7	6	6	9	2	17	17	
100	6	0	0	2	3	7	17	17	
175	10	6	0	0	3	9	11	12	
200	3	7	6	1	2	17	17	
50	5	10	0	4	2	17	17	
50	0	5	4	0	3	14	15	17	
100	7	6	8	0	2	16	17	
175	3	1	6	0	3	13	17	17	
10	5	7	8	10	3	15	17	17	
8	2	4	9	0	1	17	
4	5	9	7	10	2	17	17	
2	0	0	8	8	1	17	
0	0	0	0	0	0	
